(set-info :smt-lib-version 2.6)
(set-logic UF)
(set-info :source |
Generated by: Andrew Reynolds
Generated on: 2017-04-28
Generator: Sledgehammer, converted to v2.6 by CVC4
Application: Verfication goals in Isabelle
Target solver: CVC4, Z3
Publications: "A Decision Procedure for (Co)Datatypes" by Andrew Reynolds and Jasmin Blanchette, CADE 2015.
|)
(set-info :license "https://creativecommons.org/licenses/by/4.0/")
(set-info :category "industrial")
(set-info :status unsat)


(declare-sort A$ 0)
(declare-sort Nat$ 0)
(declare-sort A_set$ 0)
(declare-sort A_a_fun$ 0)
(declare-sort A_bool_fun$ 0)
(declare-sort Nat_nat_fun$ 0)
(declare-sort Nat_bool_fun$ 0)
(declare-sort Nat_enat_fun$ 0)
(declare-sort Enat_bool_fun$ 0)
(declare-sort A_llist_bool_fun$ 0)
(declare-sort A_llist_enat_fun$ 0)
(declare-sort A_llist_a_llist_fun$ 0)
(declare-sort Nat_nat_bool_fun_fun$ 0)
(declare-sort A_a_llist_bool_fun_fun$ 0)
(declare-sort Enat_enat_bool_fun_fun$ 0)
(declare-sort A_llist$ 0)
(declare-fun lNil$ () A_llist$)
(declare-fun lhd$ (A_llist$) A$)
(declare-fun ltl$ (A_llist$) A_llist$)
(declare-fun lCons$ (A$ A_llist$) A_llist$)
(declare-sort Nat_option$ 0)
(declare-sort Enat$ 0)
(declare-fun none$ () Nat_option$)
(declare-fun the$ (Nat_option$) Nat$)
(declare-fun some$ (Nat$) Nat_option$)
(declare-fun rep_enat$ (Enat$) Nat_option$)
(declare-fun abs_enat$ (Nat_option$) Enat$)
(declare-fun x$ () A$)
(declare-fun na$ () Nat$)
(declare-fun uu$ (A_set$) A_bool_fun$)
(declare-fun xs$ () A_llist$)
(declare-fun suc$ (Nat$) Nat$)
(declare-fun xsa$ () A_llist$)
(declare-fun enat$ (Nat$) Enat$)
(declare-fun less$ (Enat$) Enat_bool_fun$)
(declare-fun lmap$ (A_a_fun$) A_llist_a_llist_fun$)
(declare-fun lnth$ (A_llist$ Nat$) A$)
(declare-fun lset$ (A_llist$) A_set$)
(declare-fun plus$ (Nat$) Nat_nat_fun$)
(declare-fun size$ (Enat$) Nat$)
(declare-fun zero$ () Nat$)
(declare-fun less$a (Nat$) Nat_bool_fun$)
(declare-fun plus$a (Enat$ Enat$) Enat$)
(declare-fun zero$a () Enat$)
(declare-fun ldropn$ (Nat$) A_llist_a_llist_fun$)
(declare-fun member$ (A$ A_set$) Bool)
(declare-fun collect$ (A_bool_fun$) A_set$)
(declare-fun fun_app$ (A_bool_fun$ A$) Bool)
(declare-fun less_eq$ (Enat$) Enat_bool_fun$)
(declare-fun lfinite$ (A_llist$) Bool)
(declare-fun llength$ () A_llist_enat_fun$)
(declare-fun fun_app$a (A_llist_a_llist_fun$ A_llist$) A_llist$)
(declare-fun fun_app$b (Enat_bool_fun$ Enat$) Bool)
(declare-fun fun_app$c (A_llist_enat_fun$ A_llist$) Enat$)
(declare-fun fun_app$d (Nat_nat_fun$ Nat$) Nat$)
(declare-fun fun_app$e (A_a_fun$ A$) A$)
(declare-fun fun_app$f (A_llist_bool_fun$ A_llist$) Bool)
(declare-fun fun_app$g (A_a_llist_bool_fun_fun$ A$) A_llist_bool_fun$)
(declare-fun fun_app$h (Nat_bool_fun$ Nat$) Bool)
(declare-fun fun_app$i (Nat_nat_bool_fun_fun$ Nat$) Nat_bool_fun$)
(declare-fun fun_app$j (Nat_enat_fun$ Nat$) Enat$)
(declare-fun fun_app$k (Enat_enat_bool_fun_fun$ Enat$) Enat_bool_fun$)
(declare-fun iterates$ (A_a_fun$ A$) A_llist$)
(declare-fun less_eq$a (Nat$) Nat_bool_fun$)
(declare-fun the_enat$ (Enat$) Nat$)
(declare-fun triangle$ (Nat$) Nat$)
(declare-fun ldistinct$ (A_llist$) Bool)
(declare-fun size_enat$ (Enat$) Nat$)
(declare-fun gen_llength$ (Nat$) A_llist_enat_fun$)
(assert (forall ((?v0 A_set$) (?v1 A$)) (! (= (fun_app$ (uu$ ?v0) ?v1) (member$ ?v1 ?v0)) :pattern ((fun_app$ (uu$ ?v0) ?v1)))))
(assert (not (= (lhd$ (fun_app$a (ldropn$ na$) xs$)) (lnth$ xs$ na$))))
(assert (fun_app$b (less$ (enat$ na$)) (fun_app$c llength$ xs$)))
(assert (forall ((?v0 A_llist$)) (=> (fun_app$b (less$ (enat$ na$)) (fun_app$c llength$ ?v0)) (= (lhd$ (fun_app$a (ldropn$ na$) ?v0)) (lnth$ ?v0 na$))) ))
(assert (forall ((?v0 A_a_fun$) (?v1 A$)) (= (lhd$ (iterates$ ?v0 ?v1)) ?v1) ))
(assert (fun_app$b (less$ (enat$ (suc$ na$))) (fun_app$c llength$ xsa$)))
(assert (= xsa$ (lCons$ x$ xs$)))
(assert (forall ((?v0 A_llist$)) (! (= (fun_app$a (ldropn$ zero$) ?v0) ?v0) :pattern ((fun_app$a (ldropn$ zero$) ?v0)))))
(assert (forall ((?v0 Nat$) (?v1 Nat$) (?v2 A_llist$)) (= (fun_app$a (ldropn$ ?v0) (fun_app$a (ldropn$ ?v1) ?v2)) (fun_app$a (ldropn$ (fun_app$d (plus$ ?v0) ?v1)) ?v2)) ))
(assert (forall ((?v0 Nat$)) (! (= (fun_app$a (ldropn$ ?v0) lNil$) lNil$) :pattern ((ldropn$ ?v0)))))
(assert (forall ((?v0 Nat$) (?v1 A_a_fun$) (?v2 A_llist$)) (= (fun_app$a (ldropn$ ?v0) (fun_app$a (lmap$ ?v1) ?v2)) (fun_app$a (lmap$ ?v1) (fun_app$a (ldropn$ ?v0) ?v2))) ))
(assert (forall ((?v0 Nat$) (?v1 A_llist$)) (= (lfinite$ (fun_app$a (ldropn$ ?v0) ?v1)) (lfinite$ ?v1)) ))
(assert (forall ((?v0 A$) (?v1 Nat$) (?v2 A_llist$)) (=> (member$ ?v0 (lset$ (fun_app$a (ldropn$ ?v1) ?v2))) (member$ ?v0 (lset$ ?v2))) ))
(assert (forall ((?v0 A$) (?v1 A_llist$) (?v2 A$) (?v3 A_llist$)) (= (= (lCons$ ?v0 ?v1) (lCons$ ?v2 ?v3)) (and (= ?v0 ?v2) (= ?v1 ?v3))) ))
(assert (=> (forall ((?v0 A$) (?v1 A_llist$)) (=> (= xsa$ (lCons$ ?v0 ?v1)) false) ) false))
(assert (forall ((?v0 A$) (?v1 A_llist$)) (! (= (lfinite$ (lCons$ ?v0 ?v1)) (lfinite$ ?v1)) :pattern ((lCons$ ?v0 ?v1)))))
(assert (forall ((?v0 A$) (?v1 A_llist$)) (! (= (lfinite$ (lCons$ ?v0 ?v1)) (lfinite$ ?v1)) :pattern ((lCons$ ?v0 ?v1)))))
(assert (= (lfinite$ lNil$) true))
(assert (forall ((?v0 A_a_fun$) (?v1 A_llist$)) (= (lfinite$ (fun_app$a (lmap$ ?v0) ?v1)) (lfinite$ ?v1)) ))
(assert (forall ((?v0 A_a_fun$) (?v1 A_llist$)) (= (fun_app$c llength$ (fun_app$a (lmap$ ?v0) ?v1)) (fun_app$c llength$ ?v1)) ))
(assert (forall ((?v0 Nat$) (?v1 A$) (?v2 A_llist$)) (! (= (fun_app$a (ldropn$ (suc$ ?v0)) (lCons$ ?v1 ?v2)) (fun_app$a (ldropn$ ?v0) ?v2)) :pattern ((fun_app$a (ldropn$ (suc$ ?v0)) (lCons$ ?v1 ?v2))))))
(assert (forall ((?v0 A$) (?v1 A_llist$)) (! (= (lnth$ (lCons$ ?v0 ?v1) zero$) ?v0) :pattern ((lCons$ ?v0 ?v1)))))
(assert (forall ((?v0 A$) (?v1 A_llist$) (?v2 Nat$)) (! (= (lnth$ (lCons$ ?v0 ?v1) (suc$ ?v2)) (lnth$ ?v1 ?v2)) :pattern ((lnth$ (lCons$ ?v0 ?v1) (suc$ ?v2))))))
(assert (forall ((?v0 A_a_fun$) (?v1 A_llist$)) (= (= (fun_app$a (lmap$ ?v0) ?v1) lNil$) (= ?v1 lNil$)) ))
(assert (forall ((?v0 A_a_fun$) (?v1 A_llist$)) (= (= lNil$ (fun_app$a (lmap$ ?v0) ?v1)) (= ?v1 lNil$)) ))
(assert (forall ((?v0 A_a_fun$) (?v1 A$)) (= (iterates$ ?v0 ?v1) (lCons$ ?v1 (iterates$ ?v0 (fun_app$e ?v0 ?v1)))) ))
(assert (forall ((?v0 A_a_fun$) (?v1 A$) (?v2 A_llist$)) (! (= (fun_app$a (lmap$ ?v0) (lCons$ ?v1 ?v2)) (lCons$ (fun_app$e ?v0 ?v1) (fun_app$a (lmap$ ?v0) ?v2))) :pattern ((fun_app$a (lmap$ ?v0) (lCons$ ?v1 ?v2))))))
(assert (forall ((?v0 A_a_fun$) (?v1 A_llist$) (?v2 A$) (?v3 A_llist$)) (= (= (fun_app$a (lmap$ ?v0) ?v1) (lCons$ ?v2 ?v3)) (exists ((?v4 A$) (?v5 A_llist$)) (and (= ?v1 (lCons$ ?v4 ?v5)) (and (= ?v2 (fun_app$e ?v0 ?v4)) (= ?v3 (fun_app$a (lmap$ ?v0) ?v5)))) )) ))
(assert (forall ((?v0 A_llist$)) (= (not (= ?v0 lNil$)) (exists ((?v1 A$) (?v2 A_llist$)) (= ?v0 (lCons$ ?v1 ?v2)) )) ))
(assert (forall ((?v0 A_llist$)) (= (lfinite$ ?v0) (or (= ?v0 lNil$) (exists ((?v1 A_llist$) (?v2 A$)) (and (= ?v0 (lCons$ ?v2 ?v1)) (lfinite$ ?v1)) ))) ))
(assert (forall ((?v0 A_llist$)) (= (lfinite$ ?v0) (exists ((?v1 Nat$)) (= (fun_app$c llength$ ?v0) (enat$ ?v1)) )) ))
(assert (forall ((?v0 A_a_fun$)) (! (= (fun_app$a (lmap$ ?v0) lNil$) lNil$) :pattern ((lmap$ ?v0)))))
(assert (forall ((?v0 A_llist$)) (=> (and (=> (= ?v0 lNil$) false) (forall ((?v1 A$) (?v2 A_llist$)) (=> (= ?v0 (lCons$ ?v1 ?v2)) false) )) false) ))
(assert (forall ((?v0 A_llist$) (?v1 A_llist$) (?v2 A_a_fun$) (?v3 A_a_fun$)) (=> (and (forall ((?v4 A$) (?v5 A$)) (=> (and (member$ ?v4 (lset$ ?v0)) (and (member$ ?v5 (lset$ ?v1)) (= (fun_app$e ?v2 ?v4) (fun_app$e ?v3 ?v5)))) (= ?v4 ?v5)) ) (= (fun_app$a (lmap$ ?v2) ?v0) (fun_app$a (lmap$ ?v3) ?v1))) (= ?v0 ?v1)) ))
(assert (forall ((?v0 A_llist$) (?v1 A_a_fun$) (?v2 A_a_fun$)) (=> (forall ((?v3 A$)) (=> (member$ ?v3 (lset$ ?v0)) (= (fun_app$e ?v1 ?v3) (fun_app$e ?v2 ?v3))) ) (= (fun_app$a (lmap$ ?v1) ?v0) (fun_app$a (lmap$ ?v2) ?v0))) ))
(assert (forall ((?v0 A_llist$) (?v1 Nat$)) (=> (= (fun_app$c llength$ ?v0) (enat$ ?v1)) (lfinite$ ?v0)) ))
(assert (forall ((?v0 A_llist$) (?v1 A_llist$) (?v2 A_a_fun$) (?v3 A_a_fun$)) (=> (and (= ?v0 ?v1) (forall ((?v4 A$)) (=> (member$ ?v4 (lset$ ?v1)) (= (fun_app$e ?v2 ?v4) (fun_app$e ?v3 ?v4))) )) (= (fun_app$a (lmap$ ?v2) ?v0) (fun_app$a (lmap$ ?v3) ?v1))) ))
(assert (forall ((?v0 A$) (?v1 A_llist$) (?v2 A_a_llist_bool_fun_fun$)) (=> (and (member$ ?v0 (lset$ ?v1)) (and (forall ((?v3 A$) (?v4 A_llist$)) (fun_app$f (fun_app$g ?v2 ?v3) (lCons$ ?v3 ?v4)) ) (forall ((?v3 A$) (?v4 A_llist$) (?v5 A$)) (=> (and (member$ ?v5 (lset$ ?v4)) (fun_app$f (fun_app$g ?v2 ?v5) ?v4)) (fun_app$f (fun_app$g ?v2 ?v5) (lCons$ ?v3 ?v4))) ))) (fun_app$f (fun_app$g ?v2 ?v0) ?v1)) ))
(assert (forall ((?v0 A$) (?v1 A_llist$)) (=> (and (member$ ?v0 (lset$ ?v1)) (and (forall ((?v2 A_llist$)) (=> (= ?v1 (lCons$ ?v0 ?v2)) false) ) (forall ((?v2 A$) (?v3 A_llist$)) (=> (and (= ?v1 (lCons$ ?v2 ?v3)) (member$ ?v0 (lset$ ?v3))) false) ))) false) ))
(assert (forall ((?v0 A$) (?v1 A_llist$) (?v2 A_llist_bool_fun$)) (=> (and (member$ ?v0 (lset$ ?v1)) (and (forall ((?v3 A_llist$)) (fun_app$f ?v2 (lCons$ ?v0 ?v3)) ) (forall ((?v3 A$) (?v4 A_llist$)) (=> (and (member$ ?v0 (lset$ ?v4)) (fun_app$f ?v2 ?v4)) (fun_app$f ?v2 (lCons$ ?v3 ?v4))) ))) (fun_app$f ?v2 ?v1)) ))
(assert (forall ((?v0 A$) (?v1 A_llist$) (?v2 A_llist_bool_fun$)) (=> (and (member$ ?v0 (lset$ ?v1)) (and (forall ((?v3 A_llist$)) (fun_app$f ?v2 (lCons$ ?v0 ?v3)) ) (forall ((?v3 A$) (?v4 A_llist$)) (=> (and (member$ ?v0 (lset$ ?v4)) (and (not (= ?v0 ?v3)) (fun_app$f ?v2 ?v4))) (fun_app$f ?v2 (lCons$ ?v3 ?v4))) ))) (fun_app$f ?v2 ?v1)) ))
(assert (forall ((?v0 A$) (?v1 A_llist$)) (=> (and (member$ ?v0 (lset$ ?v1)) (and (forall ((?v2 A_llist$)) (=> (= ?v1 (lCons$ ?v0 ?v2)) false) ) (forall ((?v2 A$) (?v3 A_llist$)) (=> (and (= ?v1 (lCons$ ?v2 ?v3)) (member$ ?v0 (lset$ ?v3))) false) ))) false) ))
(assert (forall ((?v0 A_bool_fun$) (?v1 A_bool_fun$)) (=> (forall ((?v2 A$)) (= (fun_app$ ?v0 ?v2) (fun_app$ ?v1 ?v2)) ) (= (collect$ ?v0) (collect$ ?v1))) ))
(assert (forall ((?v0 A_set$)) (= (collect$ (uu$ ?v0)) ?v0) ))
(assert (forall ((?v0 A$) (?v1 A_bool_fun$)) (= (member$ ?v0 (collect$ ?v1)) (fun_app$ ?v1 ?v0)) ))
(assert (forall ((?v0 A$) (?v1 A_llist$) (?v2 A$)) (=> (member$ ?v0 (lset$ ?v1)) (member$ ?v0 (lset$ (lCons$ ?v2 ?v1)))) ))
(assert (forall ((?v0 A$) (?v1 A_llist$) (?v2 A$)) (=> (member$ ?v0 (lset$ ?v1)) (member$ ?v0 (lset$ (lCons$ ?v2 ?v1)))) ))
(assert (forall ((?v0 A_llist$)) (=> (and (lfinite$ ?v0) (and (=> (= ?v0 lNil$) false) (forall ((?v1 A_llist$) (?v2 A$)) (=> (and (= ?v0 (lCons$ ?v2 ?v1)) (lfinite$ ?v1)) false) ))) false) ))
(assert (forall ((?v0 A_llist$)) (=> (lfinite$ ?v0) (exists ((?v1 Nat$)) (= (fun_app$c llength$ ?v0) (enat$ ?v1)) )) ))
(assert (forall ((?v0 A_llist$) (?v1 A$)) (=> (lfinite$ ?v0) (lfinite$ (lCons$ ?v1 ?v0))) ))
(assert (forall ((?v0 A$) (?v1 A_llist$)) (not (= lNil$ (lCons$ ?v0 ?v1))) ))
(assert (forall ((?v0 A$) (?v1 A_llist$)) (member$ ?v0 (lset$ (lCons$ ?v0 ?v1))) ))
(assert (forall ((?v0 A$) (?v1 A_llist$)) (member$ ?v0 (lset$ (lCons$ ?v0 ?v1))) ))
(assert (lfinite$ lNil$))
(assert (forall ((?v0 Nat$) (?v1 A_llist$) (?v2 A$) (?v3 A_llist$)) (=> (= (fun_app$a (ldropn$ ?v0) ?v1) (lCons$ ?v2 ?v3)) (fun_app$b (less$ (enat$ ?v0)) (fun_app$c llength$ ?v1))) ))
(assert (forall ((?v0 A$) (?v1 A_llist$)) (! (= (lhd$ (lCons$ ?v0 ?v1)) ?v0) :pattern ((lCons$ ?v0 ?v1)))))
(assert (forall ((?v0 Nat$) (?v1 Nat$)) (! (= (fun_app$d (plus$ ?v0) (suc$ ?v1)) (suc$ (fun_app$d (plus$ ?v0) ?v1))) :pattern ((fun_app$d (plus$ ?v0) (suc$ ?v1))))))
(assert (forall ((?v0 Nat$) (?v1 Nat$)) (= (= (fun_app$d (plus$ ?v0) ?v1) zero$) (and (= ?v0 zero$) (= ?v1 zero$))) ))
(assert (forall ((?v0 Nat$)) (! (= (fun_app$d (plus$ ?v0) zero$) ?v0) :pattern ((plus$ ?v0)))))
(assert (forall ((?v0 Nat$) (?v1 Nat$) (?v2 Nat$)) (= (fun_app$h (less$a (fun_app$d (plus$ ?v0) ?v1)) (fun_app$d (plus$ ?v2) ?v1)) (fun_app$h (less$a ?v0) ?v2)) ))
(assert (forall ((?v0 Nat$) (?v1 Nat$) (?v2 Nat$)) (= (fun_app$h (less$a (fun_app$d (plus$ ?v0) ?v1)) (fun_app$d (plus$ ?v0) ?v2)) (fun_app$h (less$a ?v1) ?v2)) ))
(assert (forall ((?v0 Nat$) (?v1 Nat$) (?v2 Nat$)) (= (= (fun_app$d (plus$ ?v0) ?v1) (fun_app$d (plus$ ?v0) ?v2)) (= ?v1 ?v2)) ))
(assert (forall ((?v0 Nat$) (?v1 Nat$) (?v2 Nat$)) (= (= (fun_app$d (plus$ ?v0) ?v1) (fun_app$d (plus$ ?v2) ?v1)) (= ?v0 ?v2)) ))
(assert (forall ((?v0 Nat$)) (! (= (fun_app$h (less$a ?v0) zero$) false) :pattern ((less$a ?v0)))))
(assert (forall ((?v0 Nat$)) (= (not (fun_app$h (less$a zero$) ?v0)) (= ?v0 zero$)) ))
(assert (forall ((?v0 Nat$)) (= (not (= ?v0 zero$)) (fun_app$h (less$a zero$) ?v0)) ))
(assert (forall ((?v0 Nat$)) (fun_app$h (less$a ?v0) (suc$ ?v0)) ))
(assert (forall ((?v0 Nat$) (?v1 Nat$)) (=> (fun_app$h (less$a ?v0) ?v1) (fun_app$h (less$a (suc$ ?v0)) (suc$ ?v1))) ))
(assert (forall ((?v0 Nat$) (?v1 Nat$)) (! (= (fun_app$h (less$a (suc$ ?v0)) (suc$ ?v1)) (fun_app$h (less$a ?v0) ?v1)) :pattern ((fun_app$h (less$a (suc$ ?v0)) (suc$ ?v1))))))
(assert (forall ((?v0 Nat$) (?v1 Nat$)) (= (= (suc$ ?v0) (suc$ ?v1)) (= ?v0 ?v1)) ))
(assert (forall ((?v0 Nat$) (?v1 Nat$)) (= (= (suc$ ?v0) (suc$ ?v1)) (= ?v0 ?v1)) ))
(assert (forall ((?v0 Nat$) (?v1 Nat$) (?v2 Nat$)) (= (fun_app$h (less$a (fun_app$d (plus$ ?v0) ?v1)) (fun_app$d (plus$ ?v0) ?v2)) (fun_app$h (less$a ?v1) ?v2)) ))
(assert (forall ((?v0 Nat$)) (= (fun_app$d (plus$ zero$) ?v0) ?v0) ))
(assert (forall ((?v0 Enat$)) (= (plus$a zero$a ?v0) ?v0) ))
(assert (forall ((?v0 Nat$)) (= (fun_app$d (plus$ ?v0) zero$) ?v0) ))
(assert (forall ((?v0 Enat$)) (= (plus$a ?v0 zero$a) ?v0) ))
(assert (forall ((?v0 Nat$)) (fun_app$h (less$a zero$) (suc$ ?v0)) ))
(assert (forall ((?v0 Nat$)) (! (= (fun_app$h (less$a ?v0) (suc$ zero$)) (= ?v0 zero$)) :pattern ((less$a ?v0)))))
(assert (forall ((?v0 Nat$) (?v1 Nat$)) (= (fun_app$h (less$a zero$) (fun_app$d (plus$ ?v0) ?v1)) (or (fun_app$h (less$a zero$) ?v0) (fun_app$h (less$a zero$) ?v1))) ))
(assert (= (fun_app$c llength$ lNil$) zero$a))
(assert (forall ((?v0 Nat$)) (not (fun_app$h (less$a ?v0) zero$)) ))
(assert (forall ((?v0 Nat_bool_fun$) (?v1 Nat$)) (=> (and (fun_app$h ?v0 zero$) (forall ((?v2 Nat$)) (=> (and (fun_app$h (less$a zero$) ?v2) (not (fun_app$h ?v0 ?v2))) (exists ((?v3 Nat$)) (and (fun_app$h (less$a ?v3) ?v2) (not (fun_app$h ?v0 ?v3))) )) )) (fun_app$h ?v0 ?v1)) ))
(assert (forall ((?v0 Nat$)) (=> (fun_app$h (less$a ?v0) zero$) false) ))
(assert (forall ((?v0 Nat$) (?v1 Nat$)) (=> (fun_app$h (less$a ?v0) ?v1) (not (= ?v1 zero$))) ))
(assert (forall ((?v0 Nat$)) (=> (=> (= ?v0 zero$) false) (fun_app$h (less$a zero$) ?v0)) ))
(assert (forall ((?v0 Nat$) (?v1 Nat$)) (! (=> (not (fun_app$h (less$a ?v0) ?v1)) (= (fun_app$h (less$a ?v0) (suc$ ?v1)) (= ?v0 ?v1))) :pattern ((fun_app$h (less$a ?v0) (suc$ ?v1))))))
(assert (forall ((?v0 Nat$) (?v1 Nat$)) (=> (and (not (fun_app$h (less$a ?v0) ?v1)) (fun_app$h (less$a ?v0) (suc$ ?v1))) (= ?v1 ?v0)) ))
(assert (forall ((?v0 Nat$) (?v1 Nat$)) (=> (fun_app$h (less$a ?v0) ?v1) (fun_app$h (less$a ?v0) (suc$ ?v1))) ))
(assert (forall ((?v0 Nat$) (?v1 Nat$)) (=> (and (fun_app$h (less$a ?v0) ?v1) (not (= (suc$ ?v0) ?v1))) (fun_app$h (less$a (suc$ ?v0)) ?v1)) ))
(assert (forall ((?v0 Nat$) (?v1 Nat$) (?v2 Nat$)) (=> (and (fun_app$h (less$a ?v0) ?v1) (fun_app$h (less$a ?v1) ?v2)) (fun_app$h (less$a (suc$ ?v0)) ?v2)) ))
(assert (forall ((?v0 Nat$) (?v1 Nat$) (?v2 Nat_nat_bool_fun_fun$)) (=> (and (fun_app$h (less$a ?v0) ?v1) (and (forall ((?v3 Nat$)) (fun_app$h (fun_app$i ?v2 ?v3) (suc$ ?v3)) ) (forall ((?v3 Nat$) (?v4 Nat$) (?v5 Nat$)) (=> (and (fun_app$h (less$a ?v3) ?v4) (and (fun_app$h (less$a ?v4) ?v5) (and (fun_app$h (fun_app$i ?v2 ?v3) ?v4) (fun_app$h (fun_app$i ?v2 ?v4) ?v5)))) (fun_app$h (fun_app$i ?v2 ?v3) ?v5)) ))) (fun_app$h (fun_app$i ?v2 ?v0) ?v1)) ))
(assert (forall ((?v0 Nat$) (?v1 Nat$) (?v2 Nat_bool_fun$)) (=> (and (fun_app$h (less$a ?v0) ?v1) (and (forall ((?v3 Nat$)) (=> (= ?v1 (suc$ ?v3)) (fun_app$h ?v2 ?v3)) ) (forall ((?v3 Nat$)) (=> (and (fun_app$h (less$a ?v3) ?v1) (fun_app$h ?v2 (suc$ ?v3))) (fun_app$h ?v2 ?v3)) ))) (fun_app$h ?v2 ?v0)) ))
(assert (forall ((?v0 Nat$) (?v1 Nat$)) (=> (and (fun_app$h (less$a ?v0) ?v1) (and (=> (= ?v1 (suc$ ?v0)) false) (forall ((?v2 Nat$)) (=> (and (fun_app$h (less$a ?v0) ?v2) (= ?v1 (suc$ ?v2))) false) ))) false) ))
(assert (forall ((?v0 Nat$) (?v1 Nat$)) (=> (and (fun_app$h (less$a ?v0) (suc$ ?v1)) (and (=> (fun_app$h (less$a ?v0) ?v1) false) (=> (= ?v0 ?v1) false))) false) ))
(assert (forall ((?v0 Nat$) (?v1 Nat$)) (=> (fun_app$h (less$a (suc$ ?v0)) ?v1) (fun_app$h (less$a ?v0) ?v1)) ))
(assert (forall ((?v0 Nat$) (?v1 Nat$)) (=> (and (fun_app$h (less$a (suc$ ?v0)) ?v1) (forall ((?v2 Nat$)) (=> (and (fun_app$h (less$a ?v0) ?v2) (= ?v1 (suc$ ?v2))) false) )) false) ))
(assert (forall ((?v0 Nat$) (?v1 Nat$)) (=> (fun_app$h (less$a (suc$ ?v0)) (suc$ ?v1)) (fun_app$h (less$a ?v0) ?v1)) ))
(assert (forall ((?v0 Nat$) (?v1 Nat$)) (= (not (fun_app$h (less$a ?v0) ?v1)) (fun_app$h (less$a ?v1) (suc$ ?v0))) ))
(assert (forall ((?v0 Nat$) (?v1 Nat$)) (= (fun_app$h (less$a (suc$ ?v0)) ?v1) (exists ((?v2 Nat$)) (and (= ?v1 (suc$ ?v2)) (fun_app$h (less$a ?v0) ?v2)) )) ))
(assert (forall ((?v0 Nat$) (?v1 Nat$)) (! (= (fun_app$h (less$a ?v0) (suc$ ?v1)) (or (fun_app$h (less$a ?v0) ?v1) (= ?v0 ?v1))) :pattern ((fun_app$h (less$a ?v0) (suc$ ?v1))))))
(assert (forall ((?v0 Nat$) (?v1 Nat$)) (not (fun_app$h (less$a (fun_app$d (plus$ ?v0) ?v1)) ?v0)) ))
(assert (forall ((?v0 Nat$) (?v1 Nat$)) (not (fun_app$h (less$a (fun_app$d (plus$ ?v0) ?v1)) ?v1)) ))
(assert (forall ((?v0 Nat$) (?v1 Nat$) (?v2 Nat$)) (=> (fun_app$h (less$a ?v0) ?v1) (fun_app$h (less$a ?v0) (fun_app$d (plus$ ?v1) ?v2))) ))
(assert (forall ((?v0 Nat$) (?v1 Nat$) (?v2 Nat$)) (=> (fun_app$h (less$a ?v0) ?v1) (fun_app$h (less$a ?v0) (fun_app$d (plus$ ?v2) ?v1))) ))
(assert (forall ((?v0 Nat$) (?v1 Nat$) (?v2 Nat$)) (=> (fun_app$h (less$a ?v0) ?v1) (fun_app$h (less$a (fun_app$d (plus$ ?v0) ?v2)) (fun_app$d (plus$ ?v1) ?v2))) ))
(assert (forall ((?v0 Nat$) (?v1 Nat$) (?v2 Nat$) (?v3 Nat$)) (=> (and (fun_app$h (less$a ?v0) ?v1) (fun_app$h (less$a ?v2) ?v3)) (fun_app$h (less$a (fun_app$d (plus$ ?v0) ?v2)) (fun_app$d (plus$ ?v1) ?v3))) ))
(assert (forall ((?v0 Nat$) (?v1 Nat$) (?v2 Nat$) (?v3 Nat$)) (=> (and (fun_app$h (less$a ?v0) ?v1) (= (fun_app$d (plus$ ?v2) ?v1) (fun_app$d (plus$ ?v0) ?v3))) (fun_app$h (less$a ?v2) ?v3)) ))
(assert (forall ((?v0 Nat$) (?v1 Nat$) (?v2 Nat$)) (=> (fun_app$h (less$a (fun_app$d (plus$ ?v0) ?v1)) ?v2) (fun_app$h (less$a ?v0) ?v2)) ))
(assert (forall ((?v0 Nat$)) (=> (fun_app$h (less$a zero$) ?v0) (exists ((?v1 Nat$)) (= ?v0 (suc$ ?v1)) )) ))
(assert (forall ((?v0 Nat$)) (= (fun_app$h (less$a zero$) ?v0) (exists ((?v1 Nat$)) (= ?v0 (suc$ ?v1)) )) ))
(assert (forall ((?v0 Nat$) (?v1 Nat$)) (= (fun_app$h (less$a ?v0) (suc$ ?v1)) (or (= ?v0 zero$) (exists ((?v2 Nat$)) (and (= ?v0 (suc$ ?v2)) (fun_app$h (less$a ?v2) ?v1)) ))) ))
(assert (forall ((?v0 Nat$) (?v1 Nat$)) (=> (fun_app$h (less$a ?v0) ?v1) (exists ((?v2 Nat$)) (and (fun_app$h (less$a zero$) ?v2) (= (fun_app$d (plus$ ?v0) ?v2) ?v1)) )) ))
(assert (forall ((?v0 Nat$) (?v1 Nat$)) (fun_app$h (less$a ?v0) (suc$ (fun_app$d (plus$ ?v0) ?v1))) ))
(assert (forall ((?v0 Nat$) (?v1 Nat$)) (fun_app$h (less$a ?v0) (suc$ (fun_app$d (plus$ ?v1) ?v0))) ))
(assert (forall ((?v0 Nat$) (?v1 Nat$)) (=> (fun_app$h (less$a ?v0) ?v1) (exists ((?v2 Nat$)) (= ?v1 (suc$ (fun_app$d (plus$ ?v0) ?v2))) )) ))
(assert (forall ((?v0 Nat$) (?v1 Nat$)) (= (fun_app$h (less$a ?v0) ?v1) (exists ((?v2 Nat$)) (= ?v1 (suc$ (fun_app$d (plus$ ?v0) ?v2))) )) ))
(assert (forall ((?v0 Nat$)) (= (= zero$ ?v0) (= ?v0 zero$)) ))
(assert (forall ((?v0 Enat$)) (= (= zero$a ?v0) (= ?v0 zero$a)) ))
(assert (forall ((?v0 Nat$) (?v1 Nat$) (?v2 Nat$) (?v3 Nat$)) (=> (and (= ?v0 ?v1) (= ?v2 ?v3)) (= (fun_app$d (plus$ ?v0) ?v2) (fun_app$d (plus$ ?v1) ?v3))) ))
(assert (forall ((?v0 Enat$) (?v1 Enat$) (?v2 Enat$) (?v3 Enat$)) (=> (and (= ?v0 ?v1) (= ?v2 ?v3)) (= (plus$a ?v0 ?v2) (plus$a ?v1 ?v3))) ))
(assert (forall ((?v0 Nat$) (?v1 Nat$) (?v2 Nat$)) (=> (= (fun_app$d (plus$ ?v0) ?v1) (fun_app$d (plus$ ?v0) ?v2)) (= ?v1 ?v2)) ))
(assert (forall ((?v0 Nat$) (?v1 Nat$) (?v2 Nat$)) (=> (= (fun_app$d (plus$ ?v0) ?v1) (fun_app$d (plus$ ?v2) ?v1)) (= ?v0 ?v2)) ))
(assert (forall ((?v0 Nat$) (?v1 Nat$)) (= (fun_app$d (plus$ ?v0) ?v1) (fun_app$d (plus$ ?v1) ?v0)) ))
(assert (forall ((?v0 Enat$) (?v1 Enat$)) (= (plus$a ?v0 ?v1) (plus$a ?v1 ?v0)) ))
(assert (forall ((?v0 Nat$) (?v1 Nat$) (?v2 Nat$)) (= (fun_app$d (plus$ ?v0) (fun_app$d (plus$ ?v1) ?v2)) (fun_app$d (plus$ ?v1) (fun_app$d (plus$ ?v0) ?v2))) ))
(assert (forall ((?v0 Enat$) (?v1 Enat$) (?v2 Enat$)) (= (plus$a ?v0 (plus$a ?v1 ?v2)) (plus$a ?v1 (plus$a ?v0 ?v2))) ))
(assert (forall ((?v0 Nat$) (?v1 Nat$) (?v2 Nat$)) (= (fun_app$d (plus$ (fun_app$d (plus$ ?v0) ?v1)) ?v2) (fun_app$d (plus$ ?v0) (fun_app$d (plus$ ?v1) ?v2))) ))
(assert (forall ((?v0 Enat$) (?v1 Enat$) (?v2 Enat$)) (= (plus$a (plus$a ?v0 ?v1) ?v2) (plus$a ?v0 (plus$a ?v1 ?v2))) ))
(assert (forall ((?v0 Nat$) (?v1 Nat$) (?v2 Nat$)) (= (fun_app$d (plus$ (fun_app$d (plus$ ?v0) ?v1)) ?v2) (fun_app$d (plus$ ?v0) (fun_app$d (plus$ ?v1) ?v2))) ))
(assert (forall ((?v0 Enat$) (?v1 Enat$) (?v2 Enat$)) (= (plus$a (plus$a ?v0 ?v1) ?v2) (plus$a ?v0 (plus$a ?v1 ?v2))) ))
(assert (forall ((?v0 Nat$)) (=> (and (=> (= ?v0 zero$) false) (=> (not (= ?v0 zero$)) false)) false) ))
(assert (forall ((?v0 Nat$)) (not (= ?v0 (suc$ ?v0))) ))
(assert (forall ((?v0 Nat$) (?v1 Nat$)) (=> (= (suc$ ?v0) (suc$ ?v1)) (= ?v0 ?v1)) ))
(assert (forall ((?v0 Nat$) (?v1 Nat$) (?v2 Nat$)) (= (= (fun_app$d (plus$ ?v0) ?v1) (fun_app$d (plus$ ?v0) ?v2)) (= ?v1 ?v2)) ))
(assert (forall ((?v0 Nat$) (?v1 Nat$) (?v2 Nat$)) (= (= (fun_app$d (plus$ ?v0) ?v1) (fun_app$d (plus$ ?v2) ?v1)) (= ?v0 ?v2)) ))
(assert (forall ((?v0 Nat$)) (= (fun_app$d (plus$ zero$) ?v0) ?v0) ))
(assert (forall ((?v0 Enat$)) (= (plus$a zero$a ?v0) ?v0) ))
(assert (forall ((?v0 Nat$)) (= (fun_app$d (plus$ ?v0) zero$) ?v0) ))
(assert (forall ((?v0 Enat$)) (= (plus$a ?v0 zero$a) ?v0) ))
(assert (forall ((?v0 Nat$) (?v1 Nat$) (?v2 Nat$)) (=> (fun_app$h (less$a ?v0) ?v1) (fun_app$h (less$a (fun_app$d (plus$ ?v2) ?v0)) (fun_app$d (plus$ ?v2) ?v1))) ))
(assert (forall ((?v0 Nat$) (?v1 Nat$) (?v2 Nat$)) (=> (fun_app$h (less$a ?v0) ?v1) (fun_app$h (less$a (fun_app$d (plus$ ?v0) ?v2)) (fun_app$d (plus$ ?v1) ?v2))) ))
(assert (forall ((?v0 Nat$) (?v1 Nat$) (?v2 Nat$) (?v3 Nat$)) (=> (and (fun_app$h (less$a ?v0) ?v1) (fun_app$h (less$a ?v2) ?v3)) (fun_app$h (less$a (fun_app$d (plus$ ?v0) ?v2)) (fun_app$d (plus$ ?v1) ?v3))) ))
(assert (forall ((?v0 Nat$) (?v1 Nat$) (?v2 Nat$)) (=> (fun_app$h (less$a (fun_app$d (plus$ ?v0) ?v1)) (fun_app$d (plus$ ?v0) ?v2)) (fun_app$h (less$a ?v1) ?v2)) ))
(assert (forall ((?v0 Nat$) (?v1 Nat$) (?v2 Nat$)) (=> (fun_app$h (less$a (fun_app$d (plus$ ?v0) ?v1)) (fun_app$d (plus$ ?v2) ?v1)) (fun_app$h (less$a ?v0) ?v2)) ))
(assert (forall ((?v0 Nat$) (?v1 Nat$) (?v2 Nat$) (?v3 Nat$)) (=> (and (fun_app$h (less$a ?v0) ?v1) (fun_app$h (less$a ?v2) ?v3)) (fun_app$h (less$a (fun_app$d (plus$ ?v0) ?v2)) (fun_app$d (plus$ ?v1) ?v3))) ))
(assert (forall ((?v0 Nat$) (?v1 Nat$) (?v2 Nat$) (?v3 Nat$)) (=> (and (fun_app$h (less$a ?v0) ?v1) (= ?v2 ?v3)) (fun_app$h (less$a (fun_app$d (plus$ ?v0) ?v2)) (fun_app$d (plus$ ?v1) ?v3))) ))
(assert (forall ((?v0 Nat$) (?v1 Nat$) (?v2 Nat$) (?v3 Nat$)) (=> (and (= ?v0 ?v1) (fun_app$h (less$a ?v2) ?v3)) (fun_app$h (less$a (fun_app$d (plus$ ?v0) ?v2)) (fun_app$d (plus$ ?v1) ?v3))) ))
(assert (forall ((?v0 Nat_enat_fun$) (?v1 Nat$) (?v2 Nat$)) (=> (forall ((?v3 Nat$)) (fun_app$b (less$ (fun_app$j ?v0 ?v3)) (fun_app$j ?v0 (suc$ ?v3))) ) (= (fun_app$b (less$ (fun_app$j ?v0 ?v1)) (fun_app$j ?v0 ?v2)) (fun_app$h (less$a ?v1) ?v2))) ))
(assert (forall ((?v0 Nat_nat_fun$) (?v1 Nat$) (?v2 Nat$)) (=> (forall ((?v3 Nat$)) (fun_app$h (less$a (fun_app$d ?v0 ?v3)) (fun_app$d ?v0 (suc$ ?v3))) ) (= (fun_app$h (less$a (fun_app$d ?v0 ?v1)) (fun_app$d ?v0 ?v2)) (fun_app$h (less$a ?v1) ?v2))) ))
(assert (forall ((?v0 Nat_enat_fun$) (?v1 Nat$) (?v2 Nat$)) (=> (and (forall ((?v3 Nat$)) (fun_app$b (less$ (fun_app$j ?v0 ?v3)) (fun_app$j ?v0 (suc$ ?v3))) ) (fun_app$h (less$a ?v1) ?v2)) (fun_app$b (less$ (fun_app$j ?v0 ?v1)) (fun_app$j ?v0 ?v2))) ))
(assert (forall ((?v0 Nat_nat_fun$) (?v1 Nat$) (?v2 Nat$)) (=> (and (forall ((?v3 Nat$)) (fun_app$h (less$a (fun_app$d ?v0 ?v3)) (fun_app$d ?v0 (suc$ ?v3))) ) (fun_app$h (less$a ?v1) ?v2)) (fun_app$h (less$a (fun_app$d ?v0 ?v1)) (fun_app$d ?v0 ?v2))) ))
(assert (forall ((?v0 Nat$)) (not (= zero$ (suc$ ?v0))) ))
(assert (forall ((?v0 Nat$)) (not (= (suc$ ?v0) zero$)) ))
(assert (forall ((?v0 Nat$)) (not (= zero$ (suc$ ?v0))) ))
(assert (forall ((?v0 Nat$)) (not (= zero$ (suc$ ?v0))) ))
(assert (forall ((?v0 Nat_bool_fun$) (?v1 Nat$)) (=> (and (fun_app$h ?v0 zero$) (forall ((?v2 Nat$)) (=> (fun_app$h ?v0 ?v2) (fun_app$h ?v0 (suc$ ?v2))) )) (fun_app$h ?v0 ?v1)) ))
(assert (forall ((?v0 Nat_bool_fun$) (?v1 Nat$)) (=> (and (fun_app$h ?v0 ?v1) (forall ((?v2 Nat$)) (=> (fun_app$h ?v0 (suc$ ?v2)) (fun_app$h ?v0 ?v2)) )) (fun_app$h ?v0 zero$)) ))
(assert (forall ((?v0 Nat$)) (=> (not (= ?v0 zero$)) (exists ((?v1 Nat$)) (= ?v0 (suc$ ?v1)) )) ))
(assert (forall ((?v0 Nat$)) (=> (= zero$ (suc$ ?v0)) false) ))
(assert (forall ((?v0 Nat$) (?v1 Nat$)) (=> (= ?v0 (suc$ ?v1)) (not (= ?v0 zero$))) ))
(assert (forall ((?v0 Nat$)) (=> (= (suc$ ?v0) zero$) false) ))
(assert (forall ((?v0 Nat_nat_bool_fun_fun$) (?v1 Nat$) (?v2 Nat$)) (=> (and (forall ((?v3 Nat$)) (fun_app$h (fun_app$i ?v0 ?v3) zero$) ) (and (forall ((?v3 Nat$)) (fun_app$h (fun_app$i ?v0 zero$) (suc$ ?v3)) ) (forall ((?v3 Nat$) (?v4 Nat$)) (=> (fun_app$h (fun_app$i ?v0 ?v3) ?v4) (fun_app$h (fun_app$i ?v0 (suc$ ?v3)) (suc$ ?v4))) ))) (fun_app$h (fun_app$i ?v0 ?v1) ?v2)) ))
(assert (forall ((?v0 Nat$)) (=> (and (=> (= ?v0 zero$) false) (forall ((?v1 Nat$)) (=> (= ?v0 (suc$ ?v1)) false) )) false) ))
(assert (forall ((?v0 Nat$) (?v1 Nat$)) (=> (= (fun_app$d (plus$ ?v0) ?v1) ?v0) (= ?v1 zero$)) ))
(assert (forall ((?v0 Nat$)) (! (= (fun_app$d (plus$ zero$) ?v0) ?v0) :pattern ((fun_app$d (plus$ zero$) ?v0)))))
(assert (forall ((?v0 Nat$) (?v1 Nat$)) (! (= (fun_app$d (plus$ (suc$ ?v0)) ?v1) (suc$ (fun_app$d (plus$ ?v0) ?v1))) :pattern ((fun_app$d (plus$ (suc$ ?v0)) ?v1)))))
(assert (forall ((?v0 Nat$) (?v1 Nat$)) (! (= (fun_app$d (plus$ (suc$ ?v0)) ?v1) (fun_app$d (plus$ ?v0) (suc$ ?v1))) :pattern ((fun_app$d (plus$ (suc$ ?v0)) ?v1)))))
(assert (forall ((?v0 Nat$) (?v1 Nat$)) (=> (and (fun_app$h (less$a zero$) ?v0) (fun_app$h (less$a zero$) ?v1)) (fun_app$h (less$a zero$) (fun_app$d (plus$ ?v0) ?v1))) ))
(assert (forall ((?v0 Nat$) (?v1 Nat$)) (=> (and (fun_app$h (less$a ?v0) zero$) (fun_app$h (less$a ?v1) zero$)) (fun_app$h (less$a (fun_app$d (plus$ ?v0) ?v1)) zero$)) ))
(assert (forall ((?v0 Nat$) (?v1 Nat$)) (= (= (suc$ zero$) (fun_app$d (plus$ ?v0) ?v1)) (or (and (= ?v0 (suc$ zero$)) (= ?v1 zero$)) (and (= ?v0 zero$) (= ?v1 (suc$ zero$))))) ))
(assert (forall ((?v0 Nat$) (?v1 Nat$)) (= (= (fun_app$d (plus$ ?v0) ?v1) (suc$ zero$)) (or (and (= ?v0 (suc$ zero$)) (= ?v1 zero$)) (and (= ?v0 zero$) (= ?v1 (suc$ zero$))))) ))
(assert (forall ((?v0 Nat$) (?v1 Enat$) (?v2 Enat$)) (= (fun_app$b (less$ (plus$a (enat$ ?v0) ?v1)) (plus$a (enat$ ?v0) ?v2)) (fun_app$b (less$ ?v1) ?v2)) ))
(assert (forall ((?v0 Nat$) (?v1 Nat$)) (! (= (fun_app$b (less$ (enat$ ?v0)) (enat$ ?v1)) (fun_app$h (less$a ?v0) ?v1)) :pattern ((fun_app$b (less$ (enat$ ?v0)) (enat$ ?v1))))))
(assert (forall ((?v0 Nat$) (?v1 Nat$)) (! (= (plus$a (enat$ ?v0) (enat$ ?v1)) (enat$ (fun_app$d (plus$ ?v0) ?v1))) :pattern ((plus$a (enat$ ?v0) (enat$ ?v1))))))
(assert (forall ((?v0 Nat$) (?v1 Enat$) (?v2 Nat$)) (=> (fun_app$b (less$ (enat$ ?v0)) ?v1) (fun_app$b (less$ (enat$ (fun_app$d (plus$ ?v2) ?v0))) (plus$a (enat$ ?v2) ?v1))) ))
(assert (forall ((?v0 Enat$)) (= (fun_app$b (less$ zero$a) ?v0) (not (= ?v0 zero$a))) ))
(assert (forall ((?v0 Nat$) (?v1 Nat$)) (= (= (enat$ ?v0) (enat$ ?v1)) (= ?v0 ?v1)) ))
(assert (forall ((?v0 Nat$) (?v1 Enat$) (?v2 Enat$)) (= (= (plus$a (enat$ ?v0) ?v1) (plus$a (enat$ ?v0) ?v2)) (= ?v1 ?v2)) ))
(assert (forall ((?v0 Enat$) (?v1 Nat$) (?v2 Enat$)) (= (= (plus$a ?v0 (enat$ ?v1)) (plus$a ?v2 (enat$ ?v1))) (= ?v0 ?v2)) ))
(assert (forall ((?v0 Enat$) (?v1 Enat$)) (= (= (plus$a ?v0 ?v1) zero$a) (and (= ?v0 zero$a) (= ?v1 zero$a))) ))
(assert (forall ((?v0 Nat$) (?v1 Nat$)) (= (not (= ?v0 ?v1)) (or (fun_app$h (less$a ?v0) ?v1) (fun_app$h (less$a ?v1) ?v0))) ))
(assert (forall ((?v0 Enat$)) (=> (and (=> (= ?v0 zero$a) false) (=> (not (= ?v0 zero$a)) false)) false) ))
(assert (forall ((?v0 Nat$) (?v1 Nat$) (?v2 Nat_nat_bool_fun_fun$)) (=> (and (=> (fun_app$h (less$a ?v0) ?v1) (fun_app$h (fun_app$i ?v2 ?v1) ?v0)) (and (=> (= ?v0 ?v1) (fun_app$h (fun_app$i ?v2 ?v1) ?v0)) (=> (fun_app$h (less$a ?v1) ?v0) (fun_app$h (fun_app$i ?v2 ?v1) ?v0)))) (fun_app$h (fun_app$i ?v2 ?v1) ?v0)) ))
(assert (forall ((?v0 Nat_bool_fun$) (?v1 Nat$)) (=> (forall ((?v2 Nat$)) (=> (not (fun_app$h ?v0 ?v2)) (exists ((?v3 Nat$)) (and (fun_app$h (less$a ?v3) ?v2) (not (fun_app$h ?v0 ?v3))) )) ) (fun_app$h ?v0 ?v1)) ))
(assert (forall ((?v0 Nat_bool_fun$) (?v1 Nat$)) (=> (forall ((?v2 Nat$)) (=> (forall ((?v3 Nat$)) (=> (fun_app$h (less$a ?v3) ?v2) (fun_app$h ?v0 ?v3)) ) (fun_app$h ?v0 ?v2)) ) (fun_app$h ?v0 ?v1)) ))
(assert (forall ((?v0 Nat$) (?v1 Nat$)) (=> (fun_app$h (less$a ?v0) ?v1) (not (= ?v0 ?v1))) ))
(assert (forall ((?v0 Nat$) (?v1 Nat$)) (=> (fun_app$h (less$a ?v0) ?v1) (not (= ?v1 ?v0))) ))
(assert (forall ((?v0 Nat$)) (=> (fun_app$h (less$a ?v0) ?v0) false) ))
(assert (forall ((?v0 Nat$) (?v1 Nat$)) (=> (and (not (= ?v0 ?v1)) (and (=> (fun_app$h (less$a ?v0) ?v1) false) (=> (fun_app$h (less$a ?v1) ?v0) false))) false) ))
(assert (forall ((?v0 Nat$)) (not (fun_app$h (less$a ?v0) ?v0)) ))
(assert (forall ((?v0 Enat_bool_fun$) (?v1 Enat$)) (=> (forall ((?v2 Enat$)) (=> (forall ((?v3 Enat$)) (=> (fun_app$b (less$ ?v3) ?v2) (fun_app$b ?v0 ?v3)) ) (fun_app$b ?v0 ?v2)) ) (fun_app$b ?v0 ?v1)) ))
(assert (forall ((?v0 Enat$)) (not (fun_app$b (less$ ?v0) zero$a)) ))
(assert (forall ((?v0 Nat$)) (= (= (enat$ ?v0) zero$a) (= ?v0 zero$)) ))
(assert (forall ((?v0 Nat$)) (= (= zero$a (enat$ ?v0)) (= ?v0 zero$)) ))
(assert (= zero$a (enat$ zero$)))
(assert (forall ((?v0 Enat$) (?v1 Nat$)) (=> (fun_app$b (less$ ?v0) (enat$ ?v1)) (exists ((?v2 Nat$)) (= ?v0 (enat$ ?v2)) )) ))
(assert (forall ((?v0 Enat$) (?v1 Nat$)) (=> (and (fun_app$b (less$ ?v0) (enat$ ?v1)) (forall ((?v2 Nat$)) (=> (and (= ?v0 (enat$ ?v2)) (fun_app$h (less$a ?v2) ?v1)) false) )) false) ))
(assert (forall ((?v0 Nat$) (?v1 Nat$) (?v2 Enat$)) (=> (fun_app$h (less$a ?v0) ?v1) (fun_app$b (less$ (enat$ ?v0)) (plus$a (enat$ ?v1) ?v2))) ))
(assert (forall ((?v0 Nat$)) (! (= (size_enat$ (enat$ ?v0)) zero$) :pattern ((enat$ ?v0)))))
(assert (forall ((?v0 Nat$) (?v1 Nat$) (?v2 Nat$)) (=> (and (fun_app$h (less$a zero$) ?v0) (fun_app$h (less$a ?v1) ?v2)) (fun_app$h (less$a ?v1) (fun_app$d (plus$ ?v0) ?v2))) ))
(assert (forall ((?v0 Nat$) (?v1 A_llist$)) (! (= (fun_app$c (gen_llength$ ?v0) ?v1) (plus$a (enat$ ?v0) (fun_app$c llength$ ?v1))) :pattern ((fun_app$c (gen_llength$ ?v0) ?v1)))))
(assert (= llength$ (gen_llength$ zero$)))
(assert (forall ((?v0 Nat$)) (! (= (fun_app$c (gen_llength$ ?v0) lNil$) (enat$ ?v0)) :pattern ((gen_llength$ ?v0)))))
(assert (forall ((?v0 Nat$)) (! (= (size$ (enat$ ?v0)) zero$) :pattern ((enat$ ?v0)))))
(assert (forall ((?v0 Nat_nat_bool_fun_fun$) (?v1 Nat$) (?v2 Nat$)) (=> (and (forall ((?v3 Nat$) (?v4 Nat$)) (= (fun_app$h (fun_app$i ?v0 ?v3) ?v4) (fun_app$h (fun_app$i ?v0 ?v4) ?v3)) ) (and (forall ((?v3 Nat$)) (fun_app$h (fun_app$i ?v0 ?v3) zero$) ) (forall ((?v3 Nat$) (?v4 Nat$)) (=> (fun_app$h (fun_app$i ?v0 ?v3) ?v4) (fun_app$h (fun_app$i ?v0 ?v3) (fun_app$d (plus$ ?v3) ?v4))) ))) (fun_app$h (fun_app$i ?v0 ?v1) ?v2)) ))
(assert (forall ((?v0 Nat$)) (=> (and (=> (= ?v0 zero$) false) (forall ((?v1 Nat$)) (=> (= ?v0 (suc$ ?v1)) false) )) false) ))
(assert (forall ((?v0 Nat$)) (! (= (triangle$ (suc$ ?v0)) (fun_app$d (plus$ (triangle$ ?v0)) (suc$ ?v0))) :pattern ((suc$ ?v0)))))
(assert (forall ((?v0 Nat_bool_fun$)) (=> (and (not (fun_app$h ?v0 zero$)) (exists ((?v1 Nat$)) (fun_app$h ?v0 ?v1) )) (exists ((?v1 Nat$)) (and (not (fun_app$h ?v0 ?v1)) (fun_app$h ?v0 (suc$ ?v1))) )) ))
(assert (= (triangle$ zero$) zero$))
(assert (forall ((?v0 Nat$) (?v1 Nat$)) (= (= ?v0 (fun_app$d (plus$ ?v0) ?v1)) (= ?v1 zero$)) ))
(assert (not (fun_app$h (less$a zero$) zero$)))
(assert (= (the_enat$ zero$a) zero$))
(assert (forall ((?v0 Nat$)) (! (= (the_enat$ (enat$ ?v0)) ?v0) :pattern ((enat$ ?v0)))))
(assert (forall ((?v0 A_llist$)) (= (ldistinct$ ?v0) (or (= ?v0 lNil$) (exists ((?v1 A$) (?v2 A_llist$)) (and (= ?v0 (lCons$ ?v1 ?v2)) (and (not (member$ ?v1 (lset$ ?v2))) (ldistinct$ ?v2))) ))) ))
(assert (forall ((?v0 A_llist$)) (=> (and (ldistinct$ ?v0) (and (=> (= ?v0 lNil$) false) (forall ((?v1 A$) (?v2 A_llist$)) (=> (and (= ?v0 (lCons$ ?v1 ?v2)) (and (not (member$ ?v1 (lset$ ?v2))) (ldistinct$ ?v2))) false) ))) false) ))
(assert (ldistinct$ lNil$))
(assert (forall ((?v0 A$) (?v1 A_llist$)) (=> (and (not (member$ ?v0 (lset$ ?v1))) (ldistinct$ ?v1)) (ldistinct$ (lCons$ ?v0 ?v1))) ))
(assert (forall ((?v0 A_llist_bool_fun$) (?v1 A_llist$)) (=> (and (fun_app$f ?v0 ?v1) (forall ((?v2 A_llist$)) (=> (fun_app$f ?v0 ?v2) (or (= ?v2 lNil$) (exists ((?v3 A$) (?v4 A_llist$)) (and (= ?v2 (lCons$ ?v3 ?v4)) (and (not (member$ ?v3 (lset$ ?v4))) (or (fun_app$f ?v0 ?v4) (ldistinct$ ?v4)))) ))) )) (ldistinct$ ?v1)) ))
(assert (forall ((?v0 Nat$) (?v1 A_llist$)) (= (= (fun_app$a (ldropn$ ?v0) ?v1) lNil$) (fun_app$b (less_eq$ (fun_app$c llength$ ?v1)) (enat$ ?v0))) ))
(assert (forall ((?v0 Nat$) (?v1 Nat$) (?v2 Nat$)) (= (fun_app$h (less_eq$a (fun_app$d (plus$ ?v0) ?v1)) (fun_app$d (plus$ ?v0) ?v2)) (fun_app$h (less_eq$a ?v1) ?v2)) ))
(assert (forall ((?v0 Nat$) (?v1 Nat$) (?v2 Nat$)) (= (fun_app$h (less_eq$a (fun_app$d (plus$ ?v0) ?v1)) (fun_app$d (plus$ ?v2) ?v1)) (fun_app$h (less_eq$a ?v0) ?v2)) ))
(assert (forall ((?v0 Enat$)) (= (fun_app$b (less_eq$ ?v0) zero$a) (= ?v0 zero$a)) ))
(assert (forall ((?v0 Enat$) (?v1 Enat$)) (=> (forall ((?v2 Nat$)) (=> (fun_app$b (less$ ?v0) (enat$ ?v2)) (fun_app$b (less$ ?v1) (enat$ ?v2))) ) (fun_app$b (less_eq$ ?v1) ?v0)) ))
(assert (forall ((?v0 Nat_nat_fun$) (?v1 Nat$) (?v2 Nat$)) (=> (and (forall ((?v3 Nat$)) (fun_app$h (less_eq$a (fun_app$d ?v0 (suc$ ?v3))) (fun_app$d ?v0 ?v3)) ) (fun_app$h (less_eq$a ?v1) ?v2)) (fun_app$h (less_eq$a (fun_app$d ?v0 ?v2)) (fun_app$d ?v0 ?v1))) ))
(assert (forall ((?v0 Nat_enat_fun$) (?v1 Nat$) (?v2 Nat$)) (=> (and (forall ((?v3 Nat$)) (fun_app$b (less_eq$ (fun_app$j ?v0 (suc$ ?v3))) (fun_app$j ?v0 ?v3)) ) (fun_app$h (less_eq$a ?v1) ?v2)) (fun_app$b (less_eq$ (fun_app$j ?v0 ?v2)) (fun_app$j ?v0 ?v1))) ))
(assert (forall ((?v0 Nat_nat_fun$) (?v1 Nat$) (?v2 Nat$)) (=> (and (forall ((?v3 Nat$)) (fun_app$h (less_eq$a (fun_app$d ?v0 ?v3)) (fun_app$d ?v0 (suc$ ?v3))) ) (fun_app$h (less_eq$a ?v1) ?v2)) (fun_app$h (less_eq$a (fun_app$d ?v0 ?v1)) (fun_app$d ?v0 ?v2))) ))
(assert (forall ((?v0 Nat_enat_fun$) (?v1 Nat$) (?v2 Nat$)) (=> (and (forall ((?v3 Nat$)) (fun_app$b (less_eq$ (fun_app$j ?v0 ?v3)) (fun_app$j ?v0 (suc$ ?v3))) ) (fun_app$h (less_eq$a ?v1) ?v2)) (fun_app$b (less_eq$ (fun_app$j ?v0 ?v1)) (fun_app$j ?v0 ?v2))) ))
(assert (forall ((?v0 Nat_nat_bool_fun_fun$) (?v1 Nat$) (?v2 Nat$)) (=> (and (forall ((?v3 Nat$) (?v4 Nat$)) (=> (fun_app$h (less_eq$a ?v3) ?v4) (fun_app$h (fun_app$i ?v0 ?v3) ?v4)) ) (=> (fun_app$h (fun_app$i ?v0 ?v1) ?v2) (fun_app$h (fun_app$i ?v0 ?v2) ?v1))) (fun_app$h (fun_app$i ?v0 ?v2) ?v1)) ))
(assert (forall ((?v0 Enat_enat_bool_fun_fun$) (?v1 Enat$) (?v2 Enat$)) (=> (and (forall ((?v3 Enat$) (?v4 Enat$)) (=> (fun_app$b (less_eq$ ?v3) ?v4) (fun_app$b (fun_app$k ?v0 ?v3) ?v4)) ) (=> (fun_app$b (fun_app$k ?v0 ?v1) ?v2) (fun_app$b (fun_app$k ?v0 ?v2) ?v1))) (fun_app$b (fun_app$k ?v0 ?v2) ?v1)) ))
(assert (forall ((?v0 Nat$) (?v1 Nat$) (?v2 Nat$) (?v3 Nat$)) (=> (and (fun_app$h (less_eq$a ?v0) ?v1) (fun_app$h (less$a ?v2) ?v3)) (fun_app$h (less$a (fun_app$d (plus$ ?v0) ?v2)) (fun_app$d (plus$ ?v1) ?v3))) ))
(assert (forall ((?v0 Nat$) (?v1 Nat$) (?v2 Nat$) (?v3 Nat$)) (=> (and (fun_app$h (less$a ?v0) ?v1) (fun_app$h (less_eq$a ?v2) ?v3)) (fun_app$h (less$a (fun_app$d (plus$ ?v0) ?v2)) (fun_app$d (plus$ ?v1) ?v3))) ))
(assert (forall ((?v0 Nat$) (?v1 Nat$) (?v2 Nat$) (?v3 Nat$)) (=> (and (fun_app$h (less_eq$a ?v0) ?v1) (fun_app$h (less$a ?v2) ?v3)) (fun_app$h (less$a (fun_app$d (plus$ ?v0) ?v2)) (fun_app$d (plus$ ?v1) ?v3))) ))
(assert (forall ((?v0 Nat$) (?v1 Nat$) (?v2 Nat$) (?v3 Nat$)) (=> (and (fun_app$h (less$a ?v0) ?v1) (fun_app$h (less_eq$a ?v2) ?v3)) (fun_app$h (less$a (fun_app$d (plus$ ?v0) ?v2)) (fun_app$d (plus$ ?v1) ?v3))) ))
(assert (forall ((?v0 Nat$) (?v1 Nat$)) (=> (and (fun_app$h (less_eq$a zero$) ?v0) (fun_app$h (less_eq$a zero$) ?v1)) (fun_app$h (less_eq$a zero$) (fun_app$d (plus$ ?v0) ?v1))) ))
(assert (forall ((?v0 Nat$) (?v1 Nat$)) (=> (and (fun_app$h (less_eq$a zero$) ?v0) (fun_app$h (less_eq$a zero$) ?v1)) (= (= (fun_app$d (plus$ ?v0) ?v1) zero$) (and (= ?v0 zero$) (= ?v1 zero$)))) ))
(check-sat)
(exit)

